c File: data_files/evolved_graphs/g3711.col
c
c Auto generated graph
c
p edge 100 1594
e 1 6
e 1 12
e 1 17
e 1 25
e 1 34
e 1 41
e 1 50
e 1 63
e 1 66
e 1 69
e 1 71
e 1 72
e 1 77
e 1 86
e 1 91
e 1 93
e 1 94
e 2 8
e 2 13
e 2 19
e 2 31
e 2 35
e 2 36
e 2 54
e 2 69
e 2 80
e 2 81
e 2 85
e 3 7
e 3 12
e 3 13
e 3 15
e 3 19
e 3 20
e 3 27
e 3 31
e 3 32
e 3 34
e 3 38
e 3 41
e 3 43
e 3 64
e 3 71
e 3 73
e 3 76
e 3 79
e 3 97
e 4 5
e 4 6
e 4 20
e 4 21
e 4 33
e 4 34
e 4 35
e 4 57
e 4 69
e 4 70
e 4 73
e 4 78
e 4 89
e 4 90
e 4 95
e 4 96
e 5 6
e 5 7
e 5 14
e 5 18
e 5 22
e 5 23
e 5 33
e 5 34
e 5 35
e 5 37
e 5 38
e 5 49
e 5 53
e 5 66
e 5 72
e 5 73
e 5 90
e 5 96
e 6 8
e 6 11
e 6 12
e 6 13
e 6 15
e 6 27
e 6 28
e 6 31
e 6 33
e 6 37
e 6 44
e 6 52
e 6 56
e 6 57
e 6 66
e 6 83
e 6 84
e 6 87
e 6 99
e 7 15
e 7 20
e 7 26
e 7 31
e 7 32
e 7 34
e 7 38
e 7 42
e 7 57
e 7 62
e 7 63
e 7 90
e 7 97
e 7 98
e 8 15
e 8 26
e 8 39
e 8 42
e 8 51
e 8 58
e 8 61
e 8 68
e 8 77
e 8 78
e 8 88
e 9 11
e 9 18
e 9 23
e 9 30
e 9 31
e 9 34
e 9 37
e 9 38
e 9 40
e 9 41
e 9 42
e 9 44
e 9 46
e 9 47
e 9 49
e 9 51
e 9 54
e 9 55
e 9 56
e 9 59
e 9 61
e 9 63
e 9 68
e 9 69
e 9 73
e 9 76
e 9 77
e 9 78
e 9 80
e 9 81
e 9 83
e 9 86
e 9 88
e 9 92
e 9 95
e 9 96
e 9 97
e 9 98
e 9 99
e 9 100
e 10 12
e 10 13
e 10 16
e 10 18
e 10 20
e 10 22
e 10 23
e 10 24
e 10 30
e 10 34
e 10 38
e 10 46
e 10 48
e 10 49
e 10 54
e 10 58
e 10 62
e 10 63
e 10 65
e 10 66
e 10 68
e 10 72
e 10 73
e 10 74
e 10 76
e 10 77
e 10 79
e 10 81
e 10 82
e 10 85
e 10 86
e 10 87
e 10 88
e 10 90
e 10 92
e 10 94
e 10 96
e 10 97
e 10 98
e 11 15
e 11 21
e 11 28
e 11 31
e 11 33
e 11 34
e 11 40
e 11 41
e 11 43
e 11 45
e 11 46
e 11 47
e 11 49
e 11 51
e 11 52
e 11 53
e 11 54
e 11 59
e 11 61
e 11 67
e 11 68
e 11 69
e 11 70
e 11 76
e 11 82
e 11 83
e 11 85
e 11 87
e 11 93
e 11 94
e 11 99
e 11 100
e 12 23
e 12 24
e 12 31
e 12 34
e 12 39
e 12 44
e 12 47
e 12 48
e 12 49
e 12 53
e 12 56
e 12 58
e 12 60
e 12 61
e 12 63
e 12 67
e 12 69
e 12 72
e 12 73
e 12 75
e 12 77
e 12 78
e 12 81
e 12 83
e 12 84
e 12 88
e 12 89
e 12 90
e 12 92
e 12 95
e 13 17
e 13 22
e 13 28
e 13 36
e 13 42
e 13 48
e 13 50
e 13 51
e 13 54
e 13 57
e 13 60
e 13 61
e 13 62
e 13 64
e 13 65
e 13 69
e 13 70
e 13 72
e 13 75
e 13 76
e 13 77
e 13 78
e 13 79
e 13 86
e 13 87
e 13 89
e 13 91
e 13 92
e 13 93
e 13 95
e 13 96
e 13 98
e 14 21
e 14 22
e 14 28
e 14 31
e 14 33
e 14 34
e 14 36
e 14 40
e 14 44
e 14 46
e 14 47
e 14 48
e 14 49
e 14 50
e 14 54
e 14 59
e 14 62
e 14 65
e 14 69
e 14 70
e 14 72
e 14 76
e 14 79
e 14 80
e 14 86
e 14 88
e 14 89
e 14 90
e 14 91
e 14 93
e 14 97
e 15 19
e 15 21
e 15 23
e 15 29
e 15 34
e 15 35
e 15 36
e 15 37
e 15 41
e 15 43
e 15 50
e 15 51
e 15 52
e 15 54
e 15 56
e 15 57
e 15 59
e 15 60
e 15 64
e 15 66
e 15 68
e 15 70
e 15 71
e 15 75
e 15 76
e 15 79
e 15 80
e 15 85
e 15 86
e 15 95
e 15 96
e 15 98
e 15 100
e 16 17
e 16 23
e 16 29
e 16 30
e 16 31
e 16 32
e 16 33
e 16 34
e 16 36
e 16 43
e 16 45
e 16 47
e 16 48
e 16 51
e 16 53
e 16 55
e 16 60
e 16 66
e 16 70
e 16 72
e 16 75
e 16 77
e 16 80
e 16 81
e 16 86
e 16 87
e 16 90
e 16 93
e 16 97
e 17 26
e 17 31
e 17 35
e 17 36
e 17 40
e 17 45
e 17 47
e 17 49
e 17 50
e 17 52
e 17 57
e 17 58
e 17 59
e 17 60
e 17 64
e 17 65
e 17 68
e 17 69
e 17 71
e 17 72
e 17 73
e 17 75
e 17 76
e 17 77
e 17 78
e 17 80
e 17 81
e 17 82
e 17 84
e 17 85
e 17 90
e 17 91
e 17 92
e 17 96
e 17 97
e 17 99
e 18 25
e 18 26
e 18 29
e 18 31
e 18 36
e 18 42
e 18 44
e 18 46
e 18 47
e 18 55
e 18 59
e 18 60
e 18 62
e 18 63
e 18 64
e 18 65
e 18 67
e 18 70
e 18 72
e 18 76
e 18 77
e 18 83
e 18 84
e 18 86
e 18 88
e 18 94
e 18 95
e 18 97
e 18 98
e 19 20
e 19 25
e 19 37
e 19 39
e 19 41
e 19 42
e 19 47
e 19 49
e 19 50
e 19 57
e 19 58
e 19 59
e 19 61
e 19 65
e 19 70
e 19 71
e 19 75
e 19 76
e 19 81
e 19 87
e 19 88
e 19 89
e 19 90
e 19 92
e 19 95
e 19 97
e 19 99
e 20 25
e 20 26
e 20 27
e 20 31
e 20 32
e 20 35
e 20 36
e 20 41
e 20 45
e 20 46
e 20 49
e 20 53
e 20 54
e 20 57
e 20 67
e 20 68
e 20 78
e 20 80
e 20 83
e 20 85
e 20 86
e 20 91
e 20 94
e 20 95
e 20 96
e 20 99
e 20 100
e 21 22
e 21 23
e 21 25
e 21 27
e 21 28
e 21 34
e 21 36
e 21 37
e 21 39
e 21 44
e 21 45
e 21 46
e 21 47
e 21 50
e 21 51
e 21 52
e 21 57
e 21 64
e 21 74
e 21 79
e 21 80
e 21 82
e 21 86
e 21 87
e 21 93
e 21 95
e 21 99
e 21 100
e 22 23
e 22 34
e 22 37
e 22 38
e 22 40
e 22 41
e 22 43
e 22 45
e 22 46
e 22 48
e 22 51
e 22 57
e 22 58
e 22 59
e 22 60
e 22 62
e 22 64
e 22 65
e 22 66
e 22 70
e 22 74
e 22 78
e 22 80
e 22 83
e 22 84
e 22 85
e 22 86
e 22 87
e 22 90
e 22 91
e 22 99
e 23 34
e 23 37
e 23 38
e 23 39
e 23 43
e 23 53
e 23 55
e 23 56
e 23 59
e 23 60
e 23 62
e 23 66
e 23 68
e 23 75
e 23 79
e 23 81
e 23 83
e 23 84
e 23 86
e 23 89
e 23 93
e 23 94
e 23 95
e 23 96
e 23 100
e 24 27
e 24 28
e 24 29
e 24 31
e 24 33
e 24 34
e 24 35
e 24 37
e 24 41
e 24 47
e 24 49
e 24 52
e 24 53
e 24 54
e 24 57
e 24 59
e 24 60
e 24 61
e 24 62
e 24 68
e 24 70
e 24 72
e 24 73
e 24 75
e 24 79
e 24 81
e 24 82
e 24 83
e 24 84
e 24 87
e 24 88
e 24 91
e 24 94
e 24 95
e 24 96
e 24 98
e 25 28
e 25 30
e 25 35
e 25 37
e 25 38
e 25 39
e 25 40
e 25 41
e 25 44
e 25 45
e 25 46
e 25 50
e 25 53
e 25 54
e 25 56
e 25 59
e 25 60
e 25 62
e 25 68
e 25 69
e 25 73
e 25 74
e 25 76
e 25 78
e 25 80
e 25 81
e 25 91
e 26 32
e 26 35
e 26 39
e 26 41
e 26 43
e 26 48
e 26 49
e 26 53
e 26 57
e 26 61
e 26 62
e 26 63
e 26 64
e 26 65
e 26 70
e 26 71
e 26 72
e 26 74
e 26 76
e 26 78
e 26 79
e 26 84
e 26 86
e 26 96
e 26 99
e 26 100
e 27 34
e 27 36
e 27 37
e 27 38
e 27 39
e 27 52
e 27 56
e 27 60
e 27 62
e 27 64
e 27 65
e 27 66
e 27 67
e 27 68
e 27 70
e 27 75
e 27 77
e 27 79
e 27 83
e 27 85
e 27 87
e 27 88
e 27 94
e 28 30
e 28 32
e 28 38
e 28 41
e 28 42
e 28 43
e 28 44
e 28 46
e 28 47
e 28 50
e 28 56
e 28 57
e 28 60
e 28 63
e 28 66
e 28 67
e 28 68
e 28 71
e 28 75
e 28 77
e 28 80
e 28 81
e 28 82
e 28 99
e 29 32
e 29 33
e 29 35
e 29 36
e 29 37
e 29 38
e 29 44
e 29 46
e 29 47
e 29 48
e 29 49
e 29 55
e 29 61
e 29 62
e 29 63
e 29 64
e 29 66
e 29 67
e 29 74
e 29 75
e 29 77
e 29 80
e 29 82
e 29 83
e 29 86
e 29 87
e 29 96
e 29 99
e 30 31
e 30 35
e 30 37
e 30 40
e 30 44
e 30 46
e 30 51
e 30 53
e 30 54
e 30 55
e 30 58
e 30 60
e 30 62
e 30 63
e 30 65
e 30 67
e 30 68
e 30 69
e 30 75
e 30 76
e 30 81
e 30 82
e 30 83
e 30 84
e 30 85
e 30 86
e 30 91
e 31 33
e 31 38
e 31 41
e 31 42
e 31 43
e 31 44
e 31 48
e 31 50
e 31 51
e 31 53
e 31 57
e 31 58
e 31 61
e 31 63
e 31 66
e 31 67
e 31 68
e 31 70
e 31 72
e 31 73
e 31 75
e 31 81
e 31 85
e 31 88
e 32 48
e 32 49
e 32 51
e 32 54
e 32 55
e 32 58
e 32 62
e 32 66
e 32 67
e 32 71
e 32 73
e 32 74
e 32 76
e 32 78
e 32 80
e 32 81
e 32 86
e 32 88
e 33 42
e 33 44
e 33 45
e 33 48
e 33 52
e 33 53
e 33 56
e 33 60
e 33 66
e 33 68
e 33 70
e 33 71
e 33 76
e 33 77
e 33 78
e 33 79
e 33 81
e 33 87
e 33 89
e 33 93
e 33 95
e 33 96
e 33 98
e 33 100
e 34 42
e 34 43
e 34 44
e 34 47
e 34 50
e 34 51
e 34 53
e 34 55
e 34 57
e 34 58
e 34 59
e 34 64
e 34 65
e 34 77
e 34 79
e 34 81
e 34 84
e 34 86
e 34 91
e 34 93
e 34 94
e 34 99
e 35 39
e 35 40
e 35 41
e 35 42
e 35 43
e 35 45
e 35 47
e 35 51
e 35 58
e 35 62
e 35 67
e 35 69
e 35 71
e 35 73
e 35 76
e 35 79
e 35 84
e 35 86
e 35 88
e 36 39
e 36 42
e 36 43
e 36 47
e 36 48
e 36 49
e 36 51
e 36 55
e 36 56
e 36 57
e 36 58
e 36 60
e 36 62
e 36 64
e 36 67
e 36 68
e 36 70
e 36 71
e 36 72
e 36 75
e 36 80
e 36 81
e 36 82
e 36 85
e 36 86
e 36 99
e 37 39
e 37 41
e 37 43
e 37 44
e 37 54
e 37 55
e 37 56
e 37 57
e 37 58
e 37 62
e 37 69
e 37 70
e 37 71
e 37 74
e 37 77
e 37 80
e 37 84
e 37 85
e 37 95
e 38 42
e 38 44
e 38 47
e 38 49
e 38 53
e 38 55
e 38 56
e 38 58
e 38 61
e 38 63
e 38 64
e 38 68
e 38 69
e 38 70
e 38 73
e 38 74
e 38 76
e 38 77
e 38 82
e 38 83
e 38 94
e 38 96
e 39 41
e 39 42
e 39 44
e 39 47
e 39 51
e 39 52
e 39 53
e 39 54
e 39 55
e 39 56
e 39 57
e 39 60
e 39 62
e 39 65
e 39 67
e 39 70
e 39 73
e 39 78
e 39 81
e 39 86
e 39 87
e 39 88
e 39 95
e 39 97
e 39 98
e 40 44
e 40 45
e 40 51
e 40 56
e 40 59
e 40 63
e 40 70
e 40 73
e 40 79
e 40 80
e 40 81
e 40 82
e 40 84
e 40 85
e 40 89
e 40 90
e 40 91
e 40 94
e 41 50
e 41 51
e 41 53
e 41 65
e 41 79
e 41 80
e 41 82
e 41 83
e 41 85
e 41 90
e 41 91
e 41 93
e 42 44
e 42 49
e 42 50
e 42 53
e 42 62
e 42 67
e 42 80
e 42 81
e 42 83
e 42 84
e 42 85
e 42 86
e 42 87
e 42 89
e 42 90
e 42 94
e 43 46
e 43 48
e 43 57
e 43 60
e 43 79
e 43 80
e 43 81
e 43 82
e 43 84
e 43 85
e 43 86
e 43 87
e 43 92
e 43 94
e 43 98
e 44 50
e 44 52
e 44 57
e 44 59
e 44 61
e 44 70
e 44 80
e 44 81
e 44 82
e 44 83
e 44 84
e 44 85
e 44 86
e 44 87
e 44 88
e 44 89
e 44 90
e 44 91
e 44 92
e 44 94
e 44 97
e 44 99
e 45 48
e 45 58
e 45 59
e 45 60
e 45 75
e 45 76
e 45 82
e 45 83
e 45 85
e 45 86
e 45 88
e 45 90
e 45 91
e 45 92
e 45 99
e 46 47
e 46 62
e 46 64
e 46 80
e 46 84
e 46 85
e 46 86
e 46 87
e 46 89
e 46 91
e 46 92
e 46 93
e 46 94
e 46 95
e 46 96
e 47 48
e 47 55
e 47 60
e 47 63
e 47 76
e 47 80
e 47 81
e 47 85
e 47 86
e 47 87
e 47 89
e 47 91
e 47 94
e 47 96
e 47 98
e 47 99
e 48 59
e 48 63
e 48 64
e 48 65
e 48 67
e 48 68
e 48 70
e 48 79
e 48 80
e 48 82
e 48 84
e 48 87
e 48 89
e 48 90
e 48 91
e 48 93
e 48 94
e 48 95
e 48 96
e 48 97
e 49 67
e 49 79
e 49 81
e 49 82
e 49 83
e 49 84
e 49 85
e 49 87
e 49 88
e 49 89
e 49 90
e 49 93
e 49 94
e 49 95
e 49 98
e 50 54
e 50 60
e 50 62
e 50 66
e 50 74
e 50 80
e 50 82
e 50 83
e 50 85
e 50 86
e 50 87
e 50 88
e 50 89
e 50 90
e 50 92
e 50 93
e 50 94
e 50 96
e 51 71
e 51 72
e 51 79
e 51 81
e 51 82
e 51 83
e 51 84
e 51 85
e 51 86
e 51 87
e 51 88
e 51 90
e 51 92
e 51 93
e 51 94
e 51 97
e 51 99
e 52 59
e 52 63
e 52 64
e 52 69
e 52 76
e 52 78
e 52 79
e 52 80
e 52 81
e 52 82
e 52 83
e 52 84
e 52 85
e 52 86
e 52 87
e 52 89
e 52 90
e 52 91
e 52 93
e 52 94
e 52 99
e 53 56
e 53 76
e 53 77
e 53 79
e 53 80
e 53 81
e 53 83
e 53 84
e 53 85
e 53 86
e 53 87
e 53 88
e 53 90
e 53 92
e 53 94
e 53 99
e 54 55
e 54 70
e 54 72
e 54 80
e 54 83
e 54 84
e 54 87
e 54 90
e 54 91
e 54 93
e 54 100
e 55 61
e 55 67
e 55 70
e 55 72
e 55 78
e 55 81
e 55 82
e 55 83
e 55 85
e 55 86
e 55 87
e 55 88
e 55 90
e 55 91
e 55 93
e 55 99
e 56 59
e 56 65
e 56 67
e 56 73
e 56 76
e 56 81
e 56 82
e 56 84
e 56 85
e 56 87
e 56 88
e 56 90
e 56 91
e 56 92
e 56 94
e 56 98
e 56 100
e 57 61
e 57 63
e 57 65
e 57 69
e 57 70
e 57 76
e 57 79
e 57 81
e 57 83
e 57 84
e 57 87
e 57 88
e 57 91
e 57 92
e 57 93
e 57 94
e 57 98
e 58 64
e 58 65
e 58 68
e 58 70
e 58 74
e 58 75
e 58 82
e 58 83
e 58 85
e 58 86
e 58 87
e 58 88
e 58 89
e 58 92
e 58 93
e 59 60
e 59 63
e 59 67
e 59 73
e 59 74
e 59 80
e 59 81
e 59 83
e 59 86
e 59 89
e 59 90
e 59 91
e 60 62
e 60 66
e 60 72
e 60 74
e 60 75
e 60 77
e 60 78
e 60 82
e 60 83
e 60 84
e 60 88
e 60 92
e 60 93
e 60 95
e 60 98
e 61 65
e 61 66
e 61 68
e 61 75
e 61 82
e 61 84
e 61 85
e 61 91
e 61 93
e 62 72
e 62 81
e 62 85
e 62 86
e 62 87
e 62 88
e 62 90
e 62 91
e 62 92
e 62 95
e 62 97
e 62 98
e 62 99
e 62 100
e 63 70
e 63 74
e 63 79
e 63 81
e 63 83
e 63 86
e 63 87
e 63 90
e 63 94
e 63 95
e 63 96
e 64 79
e 64 80
e 64 81
e 64 82
e 64 84
e 64 85
e 64 88
e 64 90
e 64 92
e 64 94
e 64 95
e 64 97
e 64 99
e 64 100
e 65 77
e 65 79
e 65 82
e 65 84
e 65 87
e 65 89
e 65 90
e 65 92
e 65 93
e 65 94
e 65 95
e 65 97
e 65 98
e 65 100
e 66 68
e 66 72
e 66 75
e 66 77
e 66 80
e 66 83
e 66 85
e 66 87
e 66 90
e 66 91
e 66 92
e 66 93
e 66 96
e 66 97
e 66 99
e 67 68
e 67 73
e 67 79
e 67 80
e 67 81
e 67 82
e 67 85
e 67 87
e 67 89
e 67 90
e 67 91
e 67 92
e 67 94
e 67 99
e 68 79
e 68 80
e 68 83
e 68 85
e 68 87
e 68 88
e 68 89
e 68 90
e 68 91
e 68 94
e 69 70
e 69 76
e 69 77
e 69 79
e 69 81
e 69 82
e 69 87
e 69 88
e 69 89
e 69 91
e 69 94
e 69 96
e 69 98
e 69 99
e 70 74
e 70 75
e 70 79
e 70 80
e 70 83
e 70 84
e 70 85
e 70 88
e 70 91
e 70 92
e 70 99
e 71 79
e 71 82
e 71 87
e 71 88
e 71 89
e 71 90
e 71 91
e 71 92
e 71 93
e 71 98
e 71 100
e 72 78
e 72 82
e 72 83
e 72 84
e 72 86
e 72 87
e 72 89
e 72 90
e 72 91
e 72 93
e 72 95
e 72 96
e 72 97
e 72 99
e 73 77
e 73 79
e 73 80
e 73 87
e 73 88
e 73 89
e 73 90
e 73 91
e 73 92
e 73 95
e 73 97
e 74 76
e 74 78
e 74 79
e 74 80
e 74 81
e 74 84
e 74 86
e 74 87
e 74 88
e 74 93
e 74 94
e 74 95
e 74 97
e 74 98
e 74 99
e 75 79
e 75 80
e 75 83
e 75 84
e 75 85
e 75 86
e 75 87
e 75 88
e 75 89
e 75 90
e 75 91
e 75 93
e 75 94
e 75 98
e 75 99
e 76 81
e 76 83
e 76 84
e 76 87
e 76 89
e 76 90
e 76 91
e 76 92
e 76 98
e 76 100
e 77 79
e 77 81
e 77 82
e 77 84
e 77 85
e 77 86
e 77 88
e 77 89
e 77 90
e 77 92
e 77 94
e 77 95
e 77 96
e 77 100
e 78 79
e 78 80
e 78 81
e 78 84
e 78 89
e 78 90
e 78 92
e 78 93
e 78 96
e 78 97
e 78 99
e 78 100
e 79 84
e 79 87
e 79 88
e 79 92
e 79 94
e 79 97
e 79 99
e 80 85
e 80 91
e 80 99
e 81 86
e 81 88
e 81 89
e 82 98
e 83 90
e 83 94
e 84 99
e 85 89
e 85 91
e 85 92
e 85 98
e 86 92
e 86 97
e 86 100
e 87 89
e 87 98
e 88 92
e 88 93
e 88 95
e 88 100
e 89 94
e 91 93
e 91 94
e 91 97
e 92 94
e 92 95
e 92 97
e 92 100
e 94 95
e 94 97
e 95 97
e 96 98
e 96 100
